Problem:    
Rows:       4
Columns:    5 (5 integer, 5 binary)
Non-zeros:  8
Status:     INTEGER OPTIMAL
Objective:  z = 2 (MAXimum)

   No.   Row name        Activity     Lower bound   Upper bound
------ ------------    ------------- ------------- -------------
     1 con1                       -1                           0 
     2 con2                        0                           0 
     3 con5                        1             1             = 
     4 con6                        1             1             = 

   No. Column name       Activity     Lower bound   Upper bound
------ ------------    ------------- ------------- -------------
     1 a1           *              1             0             1 
     2 a2           *              1             0             1 
     3 e1           *              1             0             1 
     4 e2           *              1             0             1 
     5 e3           *              0             0             1 

Integer feasibility conditions:

KKT.PE: max.abs.err = 0.00e+00 on row 0
        max.rel.err = 0.00e+00 on row 0
        High quality

KKT.PB: max.abs.err = 0.00e+00 on row 0
        max.rel.err = 0.00e+00 on row 0
        High quality

End of output
